(set-logic HORN)
(declare-datatypes ((Bool_139 0)) (((false_139 ) (true_139 ))))
(declare-fun diseqBool_59 (Bool_139 Bool_139) Bool)
(declare-fun isfalse_59 (Bool_139) Bool)
(declare-fun istrue_59 (Bool_139) Bool)
(assert (isfalse_59 false_139))
(assert (istrue_59 true_139))
(assert (diseqBool_59 false_139 true_139))
(assert (diseqBool_59 true_139 false_139))
(declare-fun and_139 (Bool_139 Bool_139 Bool_139) Bool)
(declare-fun or_140 (Bool_139 Bool_139 Bool_139) Bool)
(declare-fun hence_139 (Bool_139 Bool_139 Bool_139) Bool)
(declare-fun not_139 (Bool_139 Bool_139) Bool)
(assert (and_139 false_139 false_139 false_139))
(assert (and_139 false_139 true_139 false_139))
(assert (and_139 false_139 false_139 true_139))
(assert (and_139 true_139 true_139 true_139))
(assert (or_140 false_139 false_139 false_139))
(assert (or_140 true_139 true_139 false_139))
(assert (or_140 true_139 false_139 true_139))
(assert (or_140 true_139 true_139 true_139))
(assert (hence_139 true_139 false_139 false_139))
(assert (hence_139 false_139 true_139 false_139))
(assert (hence_139 true_139 false_139 true_139))
(assert (hence_139 true_139 true_139 true_139))
(assert (not_139 true_139 false_139))
(assert (not_139 false_139 true_139))
(declare-datatypes ((Nat_247 0)) (((zero_35 ) (succ_35 (p_103 Nat_247)))))
(declare-fun diseqNat_247 (Nat_247 Nat_247) Bool)
(declare-fun p_104 (Nat_247 Nat_247) Bool)
(declare-fun iszero_35 (Nat_247) Bool)
(declare-fun issucc_35 (Nat_247) Bool)
(assert (forall ((x_21222 Nat_247))
	(p_104 x_21222 (succ_35 x_21222))))
(assert (iszero_35 zero_35))
(assert (forall ((x_21224 Nat_247))
	(issucc_35 (succ_35 x_21224))))
(assert (forall ((x_21225 Nat_247))
	(diseqNat_247 zero_35 (succ_35 x_21225))))
(assert (forall ((x_21226 Nat_247))
	(diseqNat_247 (succ_35 x_21226) zero_35)))
(assert (forall ((x_21227 Nat_247) (x_21228 Nat_247))
	(=> (diseqNat_247 x_21227 x_21228)
	    (diseqNat_247 (succ_35 x_21227) (succ_35 x_21228)))))
(declare-datatypes ((list_102 0)) (((nil_112 ) (cons_102 (head_204 Nat_247) (tail_204 list_102)))))
(declare-fun diseqlist_102 (list_102 list_102) Bool)
(declare-fun head_205 (Nat_247 list_102) Bool)
(declare-fun tail_205 (list_102 list_102) Bool)
(declare-fun isnil_112 (list_102) Bool)
(declare-fun iscons_102 (list_102) Bool)
(assert (forall ((x_21230 Nat_247) (x_21231 list_102))
	(head_205 x_21230 (cons_102 x_21230 x_21231))))
(assert (forall ((x_21230 Nat_247) (x_21231 list_102))
	(tail_205 x_21231 (cons_102 x_21230 x_21231))))
(assert (isnil_112 nil_112))
(assert (forall ((x_21233 Nat_247) (x_21234 list_102))
	(iscons_102 (cons_102 x_21233 x_21234))))
(assert (forall ((x_21235 Nat_247) (x_21236 list_102))
	(diseqlist_102 nil_112 (cons_102 x_21235 x_21236))))
(assert (forall ((x_21237 Nat_247) (x_21238 list_102))
	(diseqlist_102 (cons_102 x_21237 x_21238) nil_112)))
(assert (forall ((x_21239 Nat_247) (x_21240 list_102) (x_21241 Nat_247) (x_21242 list_102))
	(=> (diseqNat_247 x_21239 x_21241)
	    (diseqlist_102 (cons_102 x_21239 x_21240) (cons_102 x_21241 x_21242)))))
(assert (forall ((x_21239 Nat_247) (x_21240 list_102) (x_21241 Nat_247) (x_21242 list_102))
	(=> (diseqlist_102 x_21240 x_21242)
	    (diseqlist_102 (cons_102 x_21239 x_21240) (cons_102 x_21241 x_21242)))))
(declare-fun plus_34 (Nat_247 Nat_247 Nat_247) Bool)
(assert (forall ((x_21185 Nat_247) (z_774 Nat_247) (y_766 Nat_247))
	(=> (plus_34 x_21185 z_774 y_766)
	    (plus_34 (succ_35 x_21185) (succ_35 z_774) y_766))))
(assert (forall ((x_21186 Nat_247))
	(plus_34 x_21186 zero_35 x_21186)))
(declare-fun leq_13 (Bool_139 Nat_247 Nat_247) Bool)
(assert (forall ((x_21187 Bool_139) (x_21175 Nat_247) (z_775 Nat_247))
	(=> (leq_13 x_21187 z_775 x_21175)
	    (leq_13 x_21187 (succ_35 z_775) (succ_35 x_21175)))))
(assert (forall ((z_775 Nat_247))
	(leq_13 false_139 (succ_35 z_775) zero_35)))
(assert (forall ((y_767 Nat_247))
	(leq_13 true_139 zero_35 y_767)))
(declare-fun insert_8 (list_102 Nat_247 list_102) Bool)
(assert (forall ((z_776 Nat_247) (xs_239 list_102) (x_21176 Nat_247))
	(=> (leq_13 true_139 x_21176 z_776)
	    (insert_8 (cons_102 x_21176 (cons_102 z_776 xs_239)) x_21176 (cons_102 z_776 xs_239)))))
(assert (forall ((x_21195 list_102) (z_776 Nat_247) (xs_239 list_102) (x_21176 Nat_247))
	(=>	(and (insert_8 x_21195 x_21176 xs_239)
			(leq_13 false_139 x_21176 z_776))
		(insert_8 (cons_102 z_776 x_21195) x_21176 (cons_102 z_776 xs_239)))))
(assert (forall ((x_21176 Nat_247))
	(insert_8 (cons_102 x_21176 nil_112) x_21176 nil_112)))
(declare-fun isort_8 (list_102 list_102) Bool)
(assert (forall ((x_21197 list_102) (x_21198 list_102) (y_769 Nat_247) (xs_240 list_102))
	(=>	(and (isort_8 x_21198 xs_240)
			(insert_8 x_21197 y_769 x_21198))
		(isort_8 x_21197 (cons_102 y_769 xs_240)))))
(assert (isort_8 nil_112 nil_112))
(declare-fun count_17 (Nat_247 Nat_247 list_102) Bool)
(assert (forall ((x_21201 Nat_247) (x_21202 Nat_247) (ys_68 list_102) (x_21178 Nat_247))
	(=>	(and (count_17 x_21202 x_21178 ys_68)
			(plus_34 x_21201 (succ_35 zero_35) x_21202))
		(count_17 x_21201 x_21178 (cons_102 x_21178 ys_68)))))
(assert (forall ((x_21204 Nat_247) (z_777 Nat_247) (ys_68 list_102) (x_21178 Nat_247))
	(=>	(and (diseqNat_247 x_21178 z_777)
			(count_17 x_21204 x_21178 ys_68))
		(count_17 x_21204 x_21178 (cons_102 z_777 ys_68)))))
(assert (forall ((x_21178 Nat_247))
	(count_17 zero_35 x_21178 nil_112)))
(assert (forall ((x_21207 Nat_247) (x_21208 Nat_247) (x_21209 Nat_247) (x_21210 Nat_247) (x_21179 Nat_247) (y_771 Nat_247) (z_778 Nat_247))
	(=>	(and true
			(diseqNat_247 x_21208 x_21210)
			(plus_34 x_21207 y_771 z_778)
			(plus_34 x_21208 x_21179 x_21207)
			(plus_34 x_21209 x_21179 y_771)
			(plus_34 x_21210 x_21209 z_778))
		false)))
(assert (forall ((x_21211 Nat_247) (x_21212 Nat_247) (x_21180 Nat_247) (y_772 Nat_247))
	(=>	(and true
			(diseqNat_247 x_21211 x_21212)
			(plus_34 x_21211 x_21180 y_772)
			(plus_34 x_21212 y_772 x_21180))
		false)))
(assert (forall ((x_21213 Nat_247) (x_21181 Nat_247))
	(=>	(and true
			(diseqNat_247 x_21213 x_21181)
			(plus_34 x_21213 x_21181 zero_35))
		false)))
(assert (forall ((x_21214 Nat_247) (x_21182 Nat_247))
	(=>	(and true
			(diseqNat_247 x_21214 x_21182)
			(plus_34 x_21214 zero_35 x_21182))
		false)))
(assert (forall ((x_21215 list_102) (x_21216 Nat_247) (x_21217 Nat_247) (x_21183 Nat_247) (xs_241 list_102))
	(=>	(and true
			(diseqNat_247 x_21216 x_21217)
			(isort_8 x_21215 xs_241)
			(count_17 x_21216 x_21183 x_21215)
			(count_17 x_21217 x_21183 xs_241))
		false)))
(check-sat)
